4951621.0
1878
1 2 3 4 5 6 7 9 11 12 13 14 15 16 17 18 19 20 21 22 23 24 26 27 28 29 30 31 33 34 35 37 38 39 40 41 42 43 45 46 47 48 49 51 52 53 54 55 56 57 60 61 63 64 65 66 67 68 69 71 72 73 74 75 77 78 79 80 82 83 85 86 88 89 90 91 92 93 94 95 96 97 98 99 